
Gurobi 12.0.3 (linux64) logging started Fri Jan  2 11:05:45 2026

Set parameter LogFile to value "/home/bazzo/Scrivania/fjsp_rescheduling/simulations/logs/EX30/gurobi_exp30.log"
Set parameter OutputFlag to value 1
Set parameter TimeLimit to value 2160
Set parameter Presolve to value 2
Set parameter MIPFocus to value 3
Set parameter Heuristics to value 0.1
Set parameter ImproveStartGap to value 0.5
Set parameter Presolve to value 2
Gurobi Optimizer version 12.0.3 build v12.0.3rc0 (linux64 - "Ubuntu 22.04.5 LTS")

CPU model: Intel(R) Xeon(R) W-2145 CPU @ 3.70GHz, instruction set [SSE2|AVX|AVX2|AVX512]
Thread count: 8 physical cores, 16 logical processors, using up to 16 threads

Non-default parameters:
TimeLimit  2160
Heuristics  0.1
MIPFocus  3
Presolve  2
ImproveStartGap  0.5

Optimize a model with 764172 rows, 157937 columns and 3783351 nonzeros
Model fingerprint: 0xa25d3b2e
Model has 20 quadratic constraints
Variable types: 20 continuous, 157917 integer (157122 binary)
Coefficient statistics:
  Matrix range     [1e+00, 1e+04]
  QMatrix range    [1e+00, 1e+00]
  QLMatrix range   [1e+00, 1e+00]
  Objective range  [1e+00, 1e+00]
  Bounds range     [1e+00, 1e+00]
  RHS range        [1e+00, 4e+04]
Presolve removed 586676 rows and 123314 columns (presolve time = 5s)...
Presolve removed 597606 rows and 123318 columns (presolve time = 10s)...
Presolve removed 597673 rows and 123318 columns (presolve time = 15s)...
Presolve removed 597685 rows and 123326 columns (presolve time = 20s)...
Presolve removed 597687 rows and 123326 columns
Presolve time: 22.02s
Presolved: 166485 rows, 34611 columns, 1321279 nonzeros
Presolved model has 20 quadratic constraint(s)
Variable types: 20 continuous, 34591 integer (34381 binary)

Deterministic concurrent LP optimizer: primal simplex, dual simplex, and barrier
Showing barrier log only...

Root relaxation presolve removed 551 rows and 262 columns
Root relaxation presolved: 165934 rows, 34349 columns, 1318459 nonzeros

Root barrier log...


Barrier performed 0 iterations in 24.98 seconds (61.05 work units)
Barrier solve interrupted - model solved by another algorithm

Concurrent spin time: 0.01s

Solved with dual simplex

Root relaxation: objective 0.000000e+00, 2657 iterations, 2.55 seconds (2.22 work units)
Total elapsed time = 31.00s (DegenMoves)
Total elapsed time = 35.03s (DegenMoves)
Total elapsed time = 40.34s (DegenMoves)

    Nodes    |    Current Node    |     Objective Bounds      |     Work
 Expl Unexpl |  Obj  Depth IntInf | Incumbent    BestBd   Gap | It/Node Time

     0     0    9.00000    0   33          -    9.00000      -     -   41s
     0     0   10.00000    0   71          -   10.00000      -     -   57s
     0     0   10.00000    0  103          -   10.00000      -     -   57s
     0     0   10.00000    0  101          -   10.00000      -     -   69s
     0     0   10.00000    0  111          -   10.00000      -     -   69s
     0     0   10.00000    0  112          -   10.00000      -     -   82s
     0     0   10.00000    0  171          -   10.00000      -     -   82s
     0     0   10.00000    0   74          -   10.00000      -     -   93s
     0     0   10.00000    0  114          -   10.00000      -     -   94s
     0     0   10.00000    0  107          -   10.00000      -     -  108s
     0     0   10.00000    0  153          -   10.00000      -     -  108s
     0     0   10.00000    0   95          -   10.00000      -     -  125s
     0     0   10.00000    0   86          -   10.00000      -     -  137s
     0     0   10.00000    0   71          -   10.00000      -     -  149s
     0     0   10.00000    0   72          -   10.00000      -     -  164s
     0     0   10.00000    0   78          -   10.00000      -     -  177s
     0     0   10.00000    0   72          -   10.00000      -     -  190s
     0     0   10.00000    0   88          -   10.00000      -     -  204s
     0     0   10.00000    0   65          -   10.00000      -     -  220s
     0     0   10.00000    0   74          -   10.00000      -     -  235s
     0     0   10.00000    0   67          -   10.00000      -     -  249s
     0     0   10.00000    0   60          -   10.00000      -     -  255s
H    0     0                    2.068923e+08   10.00000   100%     -  284s
H    0     0                    8.844678e+07   10.00000   100%     -  295s
H    0     0                    6.181747e+07   10.00000   100%     -  295s
H    0     0                    6.175298e+07   10.00000   100%     -  295s
H    0     0                    6.073072e+07   10.00000   100%     -  295s
H    0     0                    6.058535e+07   10.00000   100%     -  295s
H    0     0                    6.051246e+07   10.00000   100%     -  295s
     0     2   10.00000    0   60 6.0512e+07   10.00000   100%     -  300s
     3     8   10.00000    2  145 6.0512e+07   10.00000   100%   252  306s
    23    32   10.00000    5  189 6.0512e+07   10.00000   100%   291  311s
H   31    52                    3357508.0000   10.00000   100%   267  323s
H   33    52                    3002061.0000   10.00000   100%   264  323s
H   45    52                    1333552.0000   10.00000   100%   231  323s
    51   168   10.00000    5  170 1333552.00   10.00000   100%   235  329s
H  167   633                    264011.00000   10.00000   100%   146  343s
H  242   633                    116432.00000   10.00000   100%   103  343s
H  634   633                    115544.00000   10.00000   100%  57.6  344s
H  634   633                    110594.00000   10.00000   100%  57.6  345s
H  634   633                    108449.00000   10.00000   100%  57.6  345s
H  634   633                    106304.00000   10.00000   100%  57.6  345s
H  634   633                    90597.000000   10.00000   100%  57.6  345s
   635   634   10.00000   36   60 90597.0000   10.00000   100%  57.6  397s
   637   635  444.00000   56   75 90597.0000   10.00000   100%  57.4  427s
   638   636   10.00000   30  124 90597.0000   10.00000   100%  57.3  435s
   640   637  442.00000   29   99 90597.0000   10.00000   100%  57.1  460s
H  640   605                    90462.000000   10.00000   100%  57.1  473s
H  641   575                    85779.000000   10.00000   100%  57.0  486s
H  641   546                    72965.000000   10.00000   100%  57.0  486s
H  641   519                    72285.000000   10.00000   100%  57.0  486s
H  641   493                    67628.000000   10.00000   100%  57.0  486s
H  641   468                    66740.000000   10.00000   100%  57.0  486s
H  641   444                    62228.000000   10.00000   100%  57.0  486s
H  641   422                    61868.000000   10.00000   100%  57.0  486s
H  641   401                    61540.000000   10.00000   100%  57.0  486s
   642   402 14557.0000   58   86 61540.0000   10.00000   100%  56.9  507s
H  642   382                    58280.000000   10.00000   100%  56.9  514s
   643   382   10.00000   24  113 58280.0000   10.00000   100%  56.8  524s
H  643   362                    57928.000000   10.00000   100%  56.8  536s
   645   364   10.00000   25  145 57928.0000   10.00000   100%  56.7  547s
   646   364   10.00000   26   93 57928.0000   10.00000   100%  56.6  557s
   647   365   10.00000   32  129 57928.0000   10.00000   100%  56.5  560s
   648   366 23002.0000   78   96 57928.0000   10.00000   100%  56.4  570s
   650   367   11.00000    5   98 57928.0000   10.00000   100%  56.2  581s
   651   368  444.00000   54  112 57928.0000   10.00000   100%  56.1  585s
   652   368   10.00000   13   95 57928.0000   10.00000   100%  56.1  592s
   653   369   10.00000   18  118 57928.0000   10.00000   100%  56.0  595s
   654   370 24954.0000   81   71 57928.0000   10.00000   100%  55.9  600s
   656   371 14557.0000   63   84 57928.0000   10.00000   100%  55.7  612s
   657   372 13451.0000   44   84 57928.0000   10.00000   100%  55.6  616s
H  657   353                    57837.000000   10.00000   100%  55.6  617s
H  657   335                    52145.000000   10.00000   100%  55.6  618s
H  657   318                    52040.000000   10.00000   100%  55.6  618s
H  657   302                    52025.000000   10.00000   100%  55.6  619s
H  657   286                    50489.000000   10.00000   100%  55.6  626s
H  657   272                    48697.000000   10.00000   100%  55.6  627s
H  657   258                    46905.000000   10.00000   100%  55.6  627s
   659   262   10.00000   13   74 46905.0000   10.00000   100%   102  635s
   665   272   10.00000   15  196 46905.0000   10.00000   100%   104  644s
   673   277   84.77257   16  238 46905.0000   10.00000   100%   109  650s
   681   315   10.00000   17  198 46905.0000   10.00000   100%   115  657s
   721   357   10.00000   18  203 46905.0000   10.00000   100%   117  665s
H  729   341                    42787.000000   10.00000   100%   116  665s
   777   337   10.00000   20  204 42787.0000   10.00000   100%   116  671s
H  782   323                    42051.000000   10.00000   100%   116  671s
   789   418   10.00000   21  204 42051.0000   10.00000   100%   121  681s
   889   437   10.32821   21  274 42051.0000   10.00000   100%   123  689s
   942   502   14.00799   23  119 42051.0000   10.00000   100%   131  696s
  1024   482   10.00000   19  248 42051.0000   10.00000   100%   128  700s
H 1034   475                    30367.000000   10.00000   100%   133  704s
  1040   522   10.50211   23  148 30367.0000   10.00000   100%   137  710s
H 1091   501                    29087.000000   10.00000   100%   140  714s
  1097   545   11.16062   23  156 29087.0000   10.00000   100%   142  719s
  1119   538   10.00000   21  207 29087.0000   10.00000   100%   142  720s
H 1147   526                    28718.000000   10.00000   100%   144  724s
  1151   558   14.00474   22  256 28718.0000   10.00000   100%   147  729s
H 1172   540                    28707.000000   10.00000   100%   148  730s
H 1198   566                    28683.000000   10.00000   100%   148  733s
  1226   610   10.03458   20  203 28683.0000   10.00000   100%   148  737s
  1270   618   27.00000   19  167 28683.0000   10.00000   100%   147  740s
  1286   634   10.15732   22  209 28683.0000   10.15732   100%   150  747s
  1294   668   10.16446   24  156 28683.0000   10.16446   100%   150  751s
  1328   722   10.17509   25  167 28683.0000   10.17509   100%   149  755s
  1418   776   10.28702   24  184 28683.0000   10.23426   100%   143  760s
H 1445   796                    25875.000000   10.33127   100%   144  767s
  1457   852   11.46999   18  244 25875.0000   10.37255   100%   145  772s
  1514   860   10.49137   24  185 25875.0000   10.38269   100%   143  776s
  1522   868   11.01973   21  226 25875.0000   10.38356   100%   144  780s
H 1530   880                    24115.000000   10.39925   100%   145  785s
  1542   952   12.60962   25  198 24115.0000   10.41398   100%   145  790s
  1614  1023   10.42153   23  213 24115.0000   10.42115   100%   141  795s
  1685  1031   10.42153   24  226 24115.0000   10.42153   100%   138  801s
  1693  1039   10.42164   24  256 24115.0000   10.42164   100%   139  805s
  1701  1070   10.51265   25  216 24115.0000   10.42384   100%   140  810s
  1732  1185   10.45855   27  205 24115.0000   10.45323   100%   139  816s
  1847  1293   10.47069   25  215 24115.0000   10.46533   100%   133  822s
  1955  1452   10.51265   26  200 24115.0000   10.46568   100%   128  831s
  2114  1503   11.30524   26  200 24115.0000   10.46568   100%   120  837s
  2165  1550   13.84166   23  273 24115.0000   10.48441   100%   119  845s
  2212  1601   10.50865   23  259 24115.0000   10.49369   100%   118  853s
  2263  1765   10.51549   26  202 24115.0000   10.49871   100%   117  861s
  2427  1919   17.17801   25  265 24115.0000   10.50081   100%   112  868s
  2581  2117   13.28436   24  142 24115.0000   10.50704   100%   108  877s
H 2634  2117                    24096.000000   10.51537   100%   107  877s
H 2764  2117                    23959.000000   10.52139   100%   103  877s
  2781  2357   10.81112   21  241 23959.0000   10.52139   100%   103  886s
  3027  2601   10.95369   27  264 23959.0000   10.52820   100%  96.5  894s
  3275  2869   16.08115   33  173 23959.0000   10.59383   100%  91.5  903s
  3543  3084   11.74855   24  203 23959.0000   10.68042   100%  86.6  910s
  3760  3362   18.03081   19  292 23959.0000   10.71944   100%  83.4  919s
  4041  3651   11.10984   27  201 23959.0000   10.74598   100%  79.5  928s
  4335  4094  335.45517   28  215 23959.0000   10.80930   100%  76.1  940s
  4784  4620   11.00000   22  221 23959.0000   10.85684   100%  71.9  953s
H 5196  4620                    23946.000000   10.91224   100%  67.7  953s
  5315  5176   10.92936   23  207 23946.0000   10.92621   100%  66.8  966s
  5879  5406   10.92936   22  166 23946.0000   10.92936   100%  62.5  981s
  6111  5414   11.45235   23  184 23946.0000   10.97260   100%  61.0  992s
H 6119  5422                    23170.000000   10.97260   100%  61.4 1010s
H 6122  5418                    22235.000000   10.99732   100%  61.6 1010s
  6127  5604   11.45235   28  184 22235.0000   10.99871   100%  62.3 1023s
  6314  5825   39.94952   30  207 22235.0000   11.00000   100%  61.9 1036s
  6539  6553   11.00000   25  208 22235.0000   11.00000   100%  61.2 1051s
  7278  6660   13.34567   24  247 22235.0000   11.00000   100%  57.0 1065s
H 7307  6660                    22234.000000   11.00000   100%  57.2 1065s
  7385  6740   11.32472   27  215 22234.0000   11.00000   100%  56.9 1079s
H 7402  6738                    22097.000000   11.00000   100%  57.0 1079s
  7465  7191   11.34788   28  228 22097.0000   11.00000   100%  57.0 1094s
  7922  8191   11.04046   25  218 22097.0000   11.00000   100%  55.2 1114s
  8944  8244   11.01963   27  246 22097.0000   11.00000   100%  51.2 1129s
  8997  9077   11.45109   27  225 22097.0000   11.00000   100%  51.5 1148s
  9854  9962   12.00000   19  269 22097.0000   11.00000   100%  48.7 1168s
 10769 10301   22.06496   26  207 22097.0000   11.00000   100%  46.6 1188s
 11128 10692   17.82833   24  194 22097.0000   11.00000   100%  46.3 1211s
 11527 11610 8844.00000   30  187 22097.0000   11.00000   100%  45.7 1235s
 12450 12076   28.40025   26  189 22097.0000   11.00000   100%  44.2 1256s
 12928 13282   11.49437   28  206 22097.0000   11.00502   100%  43.4 1276s
 14186 13817   12.98025   23  274 22097.0000   11.01954   100%  41.3 1299s
 14727 15089  457.61044   30  206 22097.0000   11.04485   100%  40.6 1323s
H16026 15635                    20770.000000   11.06534   100%  38.9 1344s
 16612 16702   85.42396   25  222 20770.0000   11.10714   100%  38.3 1371s
 17705 17575   12.56754   26  182 20770.0000   11.16229   100%  37.5 1399s
 18602 18242   11.33856   28  193 20770.0000   11.20764   100%  36.6 1429s
H18942 18197                    19426.000000   11.21562   100%  36.5 1429s
 19282 19422   19.02464   29  251 19426.0000   11.22521   100%  36.3 1457s
 20521 20716   11.48439   23  269 19426.0000   11.26538   100%  35.3 1483s
 21835 21671   13.34561   24  161 19426.0000   11.32928   100%  34.4 1512s
 22819 22948   11.35857   25  204 19426.0000   11.34378   100%  34.0 1539s
 24127 24233   11.47583   32  185 19426.0000   11.38428   100%  33.4 1566s
 25445 25193   12.05453   26  212 19426.0000   11.45238   100%  32.8 1595s
 26429 25201   23.94901   26  201 19426.0000   11.47500   100%  32.4 1626s
 26437 26435   13.42635   28  248 19426.0000   11.48170   100%  32.5 1655s
 27705 27561   11.48439   24  205 19426.0000   11.48439   100%  31.9 1681s
 28847 28765  496.00000   33  180 19426.0000   11.51567   100%  31.4 1704s
 30167 30025   12.39207   31  174 19426.0000   11.56584   100%  30.9 1728s
 31459 31279   12.28396   26  203 19426.0000   11.65196   100%  30.5 1747s
 32779 31825   12.28396   30  225 19426.0000   11.66245   100%  30.1 1791s
H33216 31746                    18376.000000   11.71676   100%  30.1 1791s
 33355 33012  340.70444   29  175 18376.0000   11.77939   100%  30.2 1816s
 34636 34121  496.00000   31  195 18376.0000   11.80403   100%  29.9 1840s
H35396 33975                    17630.000000   11.83734   100%  29.8 1840s
 35811 34886   14.78658   27  241 17630.0000   11.88382   100%  29.7 1865s
H36389 34856                    17298.000000   11.89435   100%  29.7 1865s
 36760 36104   11.97260   26  198 17298.0000   11.90271   100%  29.6 1889s
H38030 36531                    15530.000000   11.93939   100%  29.3 1911s
H38383 36507                    15405.000000   11.94630   100%  29.2 1912s
 38828 37688   15.30282   27  170 15405.0000   11.96018   100%  29.1 1933s
H40148 38299                    15170.000000   11.97708   100%  29.0 1956s
 40840 39101   11.99793   21  197 15170.0000   11.99735   100%  29.0 1980s
 41658 39881   16.10884   23  189 15170.0000   11.99871   100%  29.0 2003s
H42031 39814                    14850.000000   11.99871   100%  28.9 2003s
 42484 41024   71.66355   27  221 14850.0000   12.00000   100%  28.9 2027s
 43728 41905   12.00000   27  198 14850.0000   12.00000   100%  28.7 2051s
 44666 42905   12.00281   30  229 14850.0000   12.00000   100%  28.4 2075s
 45713 44010   12.03245   32  208 14850.0000   12.00000   100%  28.3 2100s
H46865 44894                    14815.000000   12.00000   100%  28.1 2122s
 47839 45852   12.00000   26  196 14815.0000   12.00000   100%  28.0 2150s
 48825 46037 2118.76004   30  201 14815.0000   12.00000   100%  28.1 2160s

Cutting planes:
  Learned: 80
  Gomory: 740
  Lift-and-project: 353
  Cover: 48
  Implied bound: 219
  Projected implied bound: 83
  Clique: 1
  MIR: 9150
  Mixing: 1019
  StrongCG: 4305
  Flow cover: 18609
  Inf proof: 71
  Zero half: 5295
  RLT: 3290
  Relax-and-lift: 3043

Explored 49023 nodes (1416521 simplex iterations) in 2160.48 seconds (2688.52 work units)
Thread count was 16 (of 16 available processors)

Solution count 10: 14815 14850 15170 ... 20770

Time limit reached
Best objective 1.481500000000e+04, best bound 1.200000000000e+01, gap 99.9190%

User-callback calls 568910, time in user-callback 5.96 sec
Set parameter TimeLimit to value 1080
Gurobi Optimizer version 12.0.3 build v12.0.3rc0 (linux64 - "Ubuntu 22.04.5 LTS")

CPU model: Intel(R) Xeon(R) W-2145 CPU @ 3.70GHz, instruction set [SSE2|AVX|AVX2|AVX512]
Thread count: 8 physical cores, 16 logical processors, using up to 16 threads

Non-default parameters:
TimeLimit  1080
Heuristics  0.1
MIPFocus  3
Presolve  2
ImproveStartGap  0.5

Optimize a model with 764173 rows, 157937 columns and 3783371 nonzeros
Model fingerprint: 0x27684521
Model has 20 quadratic constraints
Variable types: 20 continuous, 157917 integer (157122 binary)
Coefficient statistics:
  Matrix range     [1e+00, 1e+04]
  QMatrix range    [1e+00, 1e+00]
  QLMatrix range   [1e+00, 1e+00]
  Objective range  [5e-01, 5e-01]
  Bounds range     [1e+00, 1e+00]
  RHS range        [1e+00, 4e+04]

MIP start from previous solve produced solution with objective 970.5 (0.62s)
Loaded MIP start from previous solve with objective 970.5

Presolve removed 606433 rows and 124896 columns (presolve time = 5s)...
Presolve removed 609524 rows and 125480 columns (presolve time = 10s)...
Presolve removed 610308 rows and 125632 columns (presolve time = 15s)...
Presolve removed 611177 rows and 125812 columns (presolve time = 20s)...
Presolve removed 611177 rows and 125812 columns (presolve time = 25s)...
Presolve removed 611215 rows and 125814 columns
Presolve time: 26.60s
Presolved: 152958 rows, 32123 columns, 1188733 nonzeros
Presolved model has 20 quadratic constraint(s)
Found heuristic solution: objective 131.0000000
Variable types: 20 continuous, 32103 integer (31893 binary)

Deterministic concurrent LP optimizer: primal simplex, dual simplex, and barrier
Showing barrier log only...

Root relaxation presolve removed 429 rows and 206 columns
Root relaxation presolved: 152529 rows, 31917 columns, 1186458 nonzeros

Root barrier log...


Barrier performed 0 iterations in 30.39 seconds (74.07 work units)
Barrier solve interrupted - model solved by another algorithm

Concurrent spin time: 0.23s

Solved with primal simplex

Root relaxation: objective 2.100000e+01, 2137 iterations, 2.98 seconds (2.71 work units)
Total elapsed time = 36.09s (DegenMoves)

    Nodes    |    Current Node    |     Objective Bounds      |     Work
 Expl Unexpl |  Obj  Depth IntInf | Incumbent    BestBd   Gap | It/Node Time

     0     0   21.00000    0   27  131.00000   21.00000  84.0%     -   36s
H    0     0                     130.0000000   21.00000  83.8%     -   37s
H    0     0                     129.0000000   21.00000  83.7%     -   37s
     0     0   21.00000    0   56  129.00000   21.00000  83.7%     -   42s
     0     0   21.00000    0   82  129.00000   21.00000  83.7%     -   43s
     0     0   21.00000    0   53  129.00000   21.00000  83.7%     -   50s
     0     0   21.00000    0   63  129.00000   21.00000  83.7%     -   51s
     0     0   21.00000    0   43  129.00000   21.00000  83.7%     -   58s
     0     0   21.00000    0   56  129.00000   21.00000  83.7%     -   59s
     0     0   21.00000    0   54  129.00000   21.00000  83.7%     -   68s
     0     0   21.00000    0   62  129.00000   21.00000  83.7%     -   68s
     0     0   21.00000    0   80  129.00000   21.00000  83.7%     -   77s
     0     0   21.00000    0   85  129.00000   21.00000  83.7%     -   78s
     0     0   21.00000    0   64  129.00000   21.00000  83.7%     -   88s
     0     0   21.00000    0   75  129.00000   21.00000  83.7%     -   93s
     0     0   21.00000    0   47  129.00000   21.00000  83.7%     -   98s
     0     0   21.00000    0   49  129.00000   21.00000  83.7%     -  104s
     0     0   21.00000    0   52  129.00000   21.00000  83.7%     -  109s
     0     0   21.00000    0   57  129.00000   21.00000  83.7%     -  115s
     0     0   21.00000    0   55  129.00000   21.00000  83.7%     -  121s
     0     0   21.00000    0   60  129.00000   21.00000  83.7%     -  126s
     0     0   21.00000    0   56  129.00000   21.00000  83.7%     -  133s
     0     0   21.00000    0   33  129.00000   21.00000  83.7%     -  144s
     0     0   21.00000    0   55  129.00000   21.00000  83.7%     -  150s
     0     0   21.00000    0   83  129.00000   21.00000  83.7%     -  155s
     0     0   21.00000    0   74  129.00000   21.00000  83.7%     -  161s
     0     0   21.00000    0   68  129.00000   21.00000  83.7%     -  167s
     0     0   21.00000    0   59  129.00000   21.00000  83.7%     -  173s
     0     0   21.00000    0   67  129.00000   21.00000  83.7%     -  179s
     0     0   21.00000    0   46  129.00000   21.00000  83.7%     -  189s
     0     0   21.00000    0   62  129.00000   21.00000  83.7%     -  200s
     0     0   21.00000    0   41  129.00000   21.00000  83.7%     -  209s
     0     0   21.00000    0   50  129.00000   21.00000  83.7%     -  213s
     0     0   21.00000    0   45  129.00000   21.00000  83.7%     -  220s
     0     0   21.00000    0   68  129.00000   21.00000  83.7%     -  222s
     0     0   21.00000    0   68  129.00000   21.00000  83.7%     -  226s
     0     0   21.00000    0   64  129.00000   21.00000  83.7%     -  231s
     0     0   21.00000    0   59  129.00000   21.00000  83.7%     -  235s
     0     0   21.00000    0   39  129.00000   21.00000  83.7%     -  237s
     0     0   21.00000    0   34  129.00000   21.00000  83.7%     -  245s
     0     0   21.00000    0   30  129.00000   21.00000  83.7%     -  248s
     0     0   21.00000    0   39  129.00000   21.00000  83.7%     -  253s
     0     0   21.00000    0   61  129.00000   21.00000  83.7%     -  259s
     0     0   21.00000    0   32  129.00000   21.00000  83.7%     -  267s
     0     0   21.00000    0   53  129.00000   21.00000  83.7%     -  274s
     0     0   21.00000    0   32  129.00000   21.00000  83.7%     -  280s
     0     0   21.00000    0   50  129.00000   21.00000  83.7%     -  289s
     0     0   21.00000    0   51  129.00000   21.00000  83.7%     -  293s
     0     0   21.00000    0   49  129.00000   21.00000  83.7%     -  296s
     0     0   21.00000    0   60  129.00000   21.00000  83.7%     -  303s
     0     0   21.00000    0   51  129.00000   21.00000  83.7%     -  306s
     0     0   21.00000    0   34  129.00000   21.00000  83.7%     -  309s
     0     0   21.00000    0   61  129.00000   21.00000  83.7%     -  313s
     0     0   21.00000    0   80  129.00000   21.00000  83.7%     -  319s
     0     0   21.00000    0   60  129.00000   21.00000  83.7%     -  324s
     0     0   21.00000    0   57  129.00000   21.00000  83.7%     -  326s
     0     0   21.00000    0   48  129.00000   21.00000  83.7%     -  333s
     0     0   21.00000    0   60  129.00000   21.00000  83.7%     -  339s
     0     0   21.00000    0   95  129.00000   21.00000  83.7%     -  341s
     0     0   21.00000    0   81  129.00000   21.00000  83.7%     -  349s
     0     0   21.00000    0   83  129.00000   21.00000  83.7%     -  352s
     0     0   21.00000    0   78  129.00000   21.00000  83.7%     -  356s
     0     0   21.00000    0   45  129.00000   21.00000  83.7%     -  364s
     0     0   21.00000    0   44  129.00000   21.00000  83.7%     -  368s
     0     0   21.00000    0   63  129.00000   21.00000  83.7%     -  370s
     0     0   21.00000    0   44  129.00000   21.00000  83.7%     -  373s
     0     0   21.00000    0   99  129.00000   21.00000  83.7%     -  381s
     0     0   21.00000    0   52  129.00000   21.00000  83.7%     -  383s
     0     0   21.00000    0   50  129.00000   21.00000  83.7%     -  387s
     0     0   21.00000    0   60  129.00000   21.00000  83.7%     -  393s
     0     0   21.00000    0   64  129.00000   21.00000  83.7%     -  397s
     0     0   21.00000    0   74  129.00000   21.00000  83.7%     -  400s
     0     0   21.00000    0   61  129.00000   21.00000  83.7%     -  407s
     0     0   21.00000    0   52  129.00000   21.00000  83.7%     -  413s
     0     0   21.00000    0   47  129.00000   21.00000  83.7%     -  419s
     0     0   21.00000    0   59  129.00000   21.00000  83.7%     -  425s
     0     0   21.00000    0   91  129.00000   21.00000  83.7%     -  430s
     0     0   21.00000    0   83  129.00000   21.00000  83.7%     -  433s
     0     0   21.00000    0   68  129.00000   21.00000  83.7%     -  440s
     0     0   21.00000    0   74  129.00000   21.00000  83.7%     -  445s
     0     0   21.00000    0   70  129.00000   21.00000  83.7%     -  448s
     0     0   21.00000    0   54  129.00000   21.00000  83.7%     -  454s
     0     0   21.00000    0   47  129.00000   21.00000  83.7%     -  461s
     0     0   21.00000    0   62  129.00000   21.00000  83.7%     -  467s
     0     0   21.00000    0   96  129.00000   21.00000  83.7%     -  473s
     0     0   21.00000    0  113  129.00000   21.00000  83.7%     -  476s
     0     0   21.00000    0   88  129.00000   21.00000  83.7%     -  480s
     0     0   21.00000    0   49  129.00000   21.00000  83.7%     -  488s
     0     0   21.00000    0   67  129.00000   21.00000  83.7%     -  492s
     0     0   21.00000    0   69  129.00000   21.00000  83.7%     -  496s
     0     0   21.00000    0   96  129.00000   21.00000  83.7%     -  504s
     0     0   21.00000    0   47  129.00000   21.00000  83.7%     -  508s
     0     0   21.00000    0   77  129.00000   21.00000  83.7%     -  511s
     0     0   21.00000    0  108  129.00000   21.00000  83.7%     -  518s
     0     0   21.00000    0   71  129.00000   21.00000  83.7%     -  523s
     0     0   21.00000    0   58  129.00000   21.00000  83.7%     -  526s
     0     0   21.00000    0   97  129.00000   21.00000  83.7%     -  532s
     0     0   21.00000    0   86  129.00000   21.00000  83.7%     -  538s
     0     0   21.00000    0   48  129.00000   21.00000  83.7%     -  544s
     0     0   21.00000    0   55  129.00000   21.00000  83.7%     -  552s
     0     0   21.00000    0   66  129.00000   21.00000  83.7%     -  554s
     0     0   21.00000    0   43  129.00000   21.00000  83.7%     -  559s
     0     0   21.00000    0   70  129.00000   21.00000  83.7%     -  565s
     0     0   21.00000    0   79  129.00000   21.00000  83.7%     -  570s
     0     0   21.00000    0   93  129.00000   21.00000  83.7%     -  574s
     0     0   21.00000    0   35  129.00000   21.00000  83.7%     -  580s
     0     0   21.00000    0   92  129.00000   21.00000  83.7%     -  586s
     0     0   21.00000    0   85  129.00000   21.00000  83.7%     -  588s
     0     2   21.00000    0   85  129.00000   21.00000  83.7%     -  697s
     1     4   21.00000    1   87  129.00000   21.00000  83.7%   320  700s
     7    16   21.00000    3  180  129.00000   21.00000  83.7%   243  707s
    15    24   21.00000    4  239  129.00000   21.00000  83.7%   373  712s
    23   138   21.00000    5  310  129.00000   21.00000  83.7%   549  722s
   143   437   21.00000   14  228  129.00000   21.00000  83.7%   207  736s
   478   438   21.00000   22   85  129.00000   21.00000  83.7%   123  790s
H  479   417                     128.0000000   21.00000  83.6%   123  798s
   480   417   21.00000   33   40  128.00000   21.00000  83.6%   122  801s
   481   418   24.00000   36  102  128.00000   21.00000  83.6%   122  805s
   483   419   26.00000   70   65  128.00000   21.00000  83.6%   122  815s
   484   420   23.00000   49   81  128.00000   21.00000  83.6%   121  820s
   485   421   23.03424   31   92  128.00000   21.00000  83.6%   121  829s
   486   421   28.00000   53  102  128.00000   21.00000  83.6%   121  834s
   487   422   23.00000   25   51  128.00000   21.00000  83.6%   121  843s
   488   423   22.00000   36   96  128.00000   21.00000  83.6%   120  849s
   489   423   23.00000   30   71  128.00000   21.00000  83.6%   120  857s
   490   424   22.00000   19   99  128.00000   21.00000  83.6%   120  864s
   491   425   21.59000   39   66  128.00000   21.00000  83.6%   120  872s
   492   425   24.00000   57  102  128.00000   21.00000  83.6%   119  878s
   493   426   21.00000   13   49  128.00000   21.00000  83.6%   119  887s
   494   427   21.00000    6  108  128.00000   21.00000  83.6%   119  893s
   495   427   21.00000   26   93  128.00000   21.00000  83.6%   119  900s
   496   428   21.00000   18  102  128.00000   21.00000  83.6%   118  905s
   497   429   25.00000   62   67  128.00000   21.00000  83.6%   118  913s
   498   429   21.00000   27  117  128.00000   21.00000  83.6%   118  919s
   499   430   21.00000   25  109  128.00000   21.00000  83.6%   118  929s
   500   431   22.00000   29  133  128.00000   21.00000  83.6%   117  936s
   501   431   21.00000   34   54  128.00000   21.00000  83.6%   117  944s
   502   432   21.00000   17  105  128.00000   21.00000  83.6%   117  947s
   503   433   21.00000   16   91  128.00000   21.00000  83.6%   117  951s
   505   434   21.00000   11   53  128.00000   21.00000  83.6%   116  956s
   506   435   28.00000   54   74  128.00000   21.00000  83.6%   116  960s
   508   436   21.00000   11   58  128.00000   21.00000  83.6%   116  967s
   509   437   23.00000   44   58  128.00000   21.00000  83.6%   115 1018s
   510   440   21.00000   16   50  128.00000   21.00000  83.6%   159 1021s
   516   450   21.00000   18  164  128.00000   21.00000  83.6%   161 1028s
   524   456   21.00000   19  257  128.00000   21.00000  83.6%   170 1036s
   532   531   21.00000   20  183  128.00000   21.00000  83.6%   183 1045s
   612   536   21.00000   24  172  128.00000   21.00000  83.6%   182 1052s
   644   534   21.00000   25  166  128.00000   21.00000  83.6%   197 1060s
   652   686   21.00000   21  299  128.00000   21.00000  83.6%   212 1072s
   808   688   21.00000   33  287  128.00000   21.00000  83.6%   189 1080s

Cutting planes:
  Learned: 29
  Gomory: 826
  Lift-and-project: 862
  Cover: 88
  Implied bound: 12
  Projected implied bound: 12
  MIR: 3143
  Mixing: 60
  StrongCG: 1917
  Flow cover: 10294
  GUB cover: 2
  Zero half: 695
  RLT: 200
  Relax-and-lift: 267
  PSD: 1

Explored 862 nodes (242374 simplex iterations) in 1080.26 seconds (1472.51 work units)
Thread count was 16 (of 16 available processors)

Solution count 8: 128 129 129 ... 970.5

Time limit reached
Best objective 1.280000000000e+02, best bound 2.100000000000e+01, gap 83.5938%

User-callback calls 326956, time in user-callback 1.71 sec
Set parameter TimeLimit to value 360
Gurobi Optimizer version 12.0.3 build v12.0.3rc0 (linux64 - "Ubuntu 22.04.5 LTS")

CPU model: Intel(R) Xeon(R) W-2145 CPU @ 3.70GHz, instruction set [SSE2|AVX|AVX2|AVX512]
Thread count: 8 physical cores, 16 logical processors, using up to 16 threads

Non-default parameters:
TimeLimit  360
Heuristics  0.1
MIPFocus  3
Presolve  2
ImproveStartGap  0.5

Optimize a model with 764175 rows, 157937 columns and 3785332 nonzeros
Model fingerprint: 0x138a46d0
Model has 20 quadratic constraints
Variable types: 20 continuous, 157917 integer (157122 binary)
Coefficient statistics:
  Matrix range     [5e-01, 1e+04]
  QMatrix range    [1e+00, 1e+00]
  QLMatrix range   [1e+00, 1e+00]
  Objective range  [1e+00, 1e+00]
  Bounds range     [1e+00, 1e+00]
  RHS range        [1e+00, 4e+04]

MIP start from previous solve produced solution with objective 2656 (0.63s)
Loaded MIP start from previous solve with objective 2656

Presolve removed 606053 rows and 124861 columns (presolve time = 5s)...
Presolve removed 609337 rows and 125455 columns (presolve time = 10s)...
Presolve removed 610247 rows and 125631 columns (presolve time = 15s)...
Presolve removed 611119 rows and 125811 columns (presolve time = 20s)...
Presolve removed 611119 rows and 125811 columns (presolve time = 25s)...
Presolve removed 611153 rows and 125813 columns
Presolve time: 26.80s
Presolved: 153022 rows, 32124 columns, 1190175 nonzeros
Presolved model has 20 quadratic constraint(s)
Variable types: 20 continuous, 32104 integer (31893 binary)

Resetting heuristic parameters to focus on improving solution
(using Heuristics=0.5 and RINS=10)...


Deterministic concurrent LP optimizer: primal simplex, dual simplex, and barrier
Showing barrier log only...

Root relaxation presolve removed 700 rows and 302 columns
Root relaxation presolved: 152322 rows, 31822 columns, 1186088 nonzeros

Root barrier log...


Barrier performed 0 iterations in 30.58 seconds (74.82 work units)
Barrier solve interrupted - model solved by another algorithm

Concurrent spin time: 0.00s

Solved with dual simplex

Root relaxation: objective 2.590000e+03, 1349 iterations, 2.78 seconds (3.25 work units)
Total elapsed time = 38.58s (DegenMoves)
Total elapsed time = 40.64s (DegenMoves)
Total elapsed time = 48.66s (DegenMoves)

    Nodes    |    Current Node    |     Objective Bounds      |     Work
 Expl Unexpl |  Obj  Depth IntInf | Incumbent    BestBd   Gap | It/Node Time

     0     0 2590.00000    0  102 2656.00000 2590.00000  2.48%     -   49s
     0     0 2590.00000    0  102 2656.00000 2590.00000  2.48%     -   70s
     0     2 2590.00000    0   78 2656.00000 2590.00000  2.48%     -   85s
     7    16 2590.00000    3  146 2656.00000 2590.00000  2.48%   186   91s
    51    84 2590.00000    8  150 2656.00000 2590.00000  2.48%   112   97s
    83   143 2616.00000   10  142 2656.00000 2590.00000  2.48%  73.4  104s
   148   294 2594.00000   14  138 2656.00000 2590.00000  2.48%  46.0  114s
   309   470 2594.00000   26  146 2656.00000 2590.00000  2.48%  30.2  125s
H  331   470                    2655.0000000 2590.00000  2.45%  29.1  125s
H  495   725                    2654.0000000 2590.00000  2.41%  23.8  132s
H  781   910                    2653.0000000 2590.00000  2.37%  19.8  139s
H  991  1017                    2652.0000000 2590.00000  2.34%  18.1  147s
  1117  1241 infeasible   23      2652.00000 2590.00000  2.34%  20.4  153s
H 1118  1241                    2651.0000000 2590.00000  2.30%  20.4  153s
H 1366  1393                    2650.0000000 2590.00000  2.26%  19.3  164s
H 1527  1558                    2649.0000000 2590.00000  2.23%  18.9  176s
  1729  1846 2590.00000   51  155 2649.00000 2590.00000  2.23%  19.3  188s
  2062  1847 2594.00000   28  102 2649.00000 2590.00000  2.23%  18.3  231s
  2064  1848 2601.00000   37  128 2649.00000 2590.00000  2.23%  18.3  272s
  2065  1849 2593.00000   27  105 2649.00000 2590.00000  2.23%  18.2  292s
  2066  1850 2590.00000   11  115 2649.00000 2590.00000  2.23%  18.2  299s
  2067  1850 2590.00000   48   96 2649.00000 2590.00000  2.23%  18.2  311s
  2068  1851 2598.00000   31  108 2649.00000 2590.00000  2.23%  18.2  323s
  2069  1852 2594.00000   63  123 2649.00000 2590.00000  2.23%  18.2  335s
  2070  1852 2600.00000   62  113 2649.00000 2590.00000  2.23%  18.2  347s

Cutting planes:
  Learned: 3
  Gomory: 174
  Lift-and-project: 216
  Cover: 98
  Implied bound: 13
  Projected implied bound: 6
  MIR: 1559
  Mixing: 35
  StrongCG: 740
  Flow cover: 3811
  GUB cover: 2
  Inf proof: 1
  Zero half: 110
  RLT: 51
  Relax-and-lift: 64
  BQP: 1

Explored 2070 nodes (65931 simplex iterations) in 360.27 seconds (466.14 work units)
Thread count was 16 (of 16 available processors)

Solution count 8: 2649 2650 2651 ... 2656

Time limit reached
Best objective 2.649000000000e+03, best bound 2.590000000000e+03, gap 2.2273%

User-callback calls 114014, time in user-callback 0.57 sec
